NAME          DCAP_2_4_3_500_SS450
ROWS
 N  OBJ
 L  CON1
 L  CON2
 L  CON3
 L  CON4
 L  CON5
 L  CON6
 L  CON7
 L  CON8
 L  CON9
 L  CON10
 L  CON11
 L  CON12
 E  CON13
 E  CON14
 E  CON15
 E  CON16
 E  CON17
 E  CON18
 E  CON19
 E  CON20
 E  CON21
 E  CON22
 E  CON23
 E  CON24
COLUMNS
    x[1,1]    OBJ       6.180167      CON1      1.000000    
    x[1,1]    CON7      -1.000000     CON8      -1.000000   
    x[1,1]    CON9      -1.000000   
    x[1,2]    OBJ       6.563535      CON2      1.000000    
    x[1,2]    CON8      -1.000000     CON9      -1.000000   
    x[1,3]    OBJ       7.443064      CON3      1.000000    
    x[1,3]    CON9      -1.000000   
    x[2,1]    OBJ       6.732585      CON4      1.000000    
    x[2,1]    CON10     -1.000000     CON11     -1.000000   
    x[2,1]    CON12     -1.000000   
    x[2,2]    OBJ       5.039546      CON5      1.000000    
    x[2,2]    CON11     -1.000000     CON12     -1.000000   
    x[2,3]    OBJ       6.054841      CON6      1.000000    
    x[2,3]    CON12     -1.000000   
    MARKER    'MARKER'                'INTORG'
    u[1,1]    OBJ       48.076654     CON1      -1.000000   
    u[1,2]    OBJ       20.066487     CON2      -1.000000   
    u[1,3]    OBJ       32.230043     CON3      -1.000000   
    u[2,1]    OBJ       49.996186     CON4      -1.000000   
    u[2,2]    OBJ       49.466655     CON5      -1.000000   
    u[2,3]    OBJ       27.484319     CON6      -1.000000   
    y[1,1,1]  OBJ       6.280756      CON7      1.110128    
    y[1,1,1]  CON13     1.000000    
    y[1,1,2]  OBJ       6.151905      CON8      1.129462    
    y[1,1,2]  CON14     1.000000    
    y[1,1,3]  OBJ       8.151348      CON9      1.190604    
    y[1,1,3]  CON15     1.000000    
    y[1,2,1]  OBJ       9.295615      CON7      1.334175    
    y[1,2,1]  CON16     1.000000    
    y[1,2,2]  OBJ       7.301927      CON8      1.139179    
    y[1,2,2]  CON17     1.000000    
    y[1,2,3]  OBJ       8.231443      CON9      0.995563    
    y[1,2,3]  CON18     1.000000    
    y[1,3,1]  OBJ       8.203039      CON7      1.043279    
    y[1,3,1]  CON19     1.000000    
    y[1,3,2]  OBJ       6.449729      CON8      1.166022    
    y[1,3,2]  CON20     1.000000    
    y[1,3,3]  OBJ       8.155419      CON9      1.146005    
    y[1,3,3]  CON21     1.000000    
    y[1,4,1]  OBJ       7.409894      CON7      1.234642    
    y[1,4,1]  CON22     1.000000    
    y[1,4,2]  OBJ       8.517874      CON8      0.513694    
    y[1,4,2]  CON23     1.000000    
    y[1,4,3]  OBJ       5.404927      CON9      1.020790    
    y[1,4,3]  CON24     1.000000    
    y[2,1,1]  OBJ       9.416175      CON10     1.110128    
    y[2,1,1]  CON13     1.000000    
    y[2,1,2]  OBJ       8.332047      CON11     1.129462    
    y[2,1,2]  CON14     1.000000    
    y[2,1,3]  OBJ       5.580121      CON12     1.190604    
    y[2,1,3]  CON15     1.000000    
    y[2,2,1]  OBJ       7.034447      CON10     1.334175    
    y[2,2,1]  CON16     1.000000    
    y[2,2,2]  OBJ       6.873527      CON11     1.139179    
    y[2,2,2]  CON17     1.000000    
    y[2,2,3]  OBJ       8.378437      CON12     0.995563    
    y[2,2,3]  CON18     1.000000    
    y[2,3,1]  OBJ       6.976160      CON10     1.043279    
    y[2,3,1]  CON19     1.000000    
    y[2,3,2]  OBJ       8.823859      CON11     1.166022    
    y[2,3,2]  CON20     1.000000    
    y[2,3,3]  OBJ       5.003301      CON12     1.146005    
    y[2,3,3]  CON21     1.000000    
    y[2,4,1]  OBJ       8.533061      CON10     1.234642    
    y[2,4,1]  CON22     1.000000    
    y[2,4,2]  OBJ       9.799962      CON11     0.513694    
    y[2,4,2]  CON23     1.000000    
    y[2,4,3]  OBJ       9.968619      CON12     1.020790    
    y[2,4,3]  CON24     1.000000    
    z[1,1]    OBJ       944.344964    CON13     1.000000    
    z[1,2]    OBJ       739.634648    CON14     1.000000    
    z[1,3]    OBJ       557.295796    CON15     1.000000    
    z[2,1]    OBJ       686.431729    CON16     1.000000    
    z[2,2]    OBJ       551.421406    CON17     1.000000    
    z[2,3]    OBJ       914.661537    CON18     1.000000    
    z[3,1]    OBJ       663.361373    CON19     1.000000    
    z[3,2]    OBJ       991.609157    CON20     1.000000    
    z[3,3]    OBJ       963.997919    CON21     1.000000    
    z[4,1]    OBJ       861.669301    CON22     1.000000    
    z[4,2]    OBJ       713.132271    CON23     1.000000    
    z[4,3]    OBJ       881.001960    CON24     1.000000    
    MARKER    'MARKER'                 'INTEND'
RHS
    RHS       CON1      -0.000000     CON2      -0.000000   
    RHS       CON3      -0.000000     CON4      -0.000000   
    RHS       CON5      -0.000000     CON6      -0.000000   
    RHS       CON7      -0.000000     CON8      -0.000000   
    RHS       CON9      -0.000000     CON10     -0.000000   
    RHS       CON11     -0.000000     CON12     -0.000000   
    RHS       CON13     1.000000      CON14     1.000000    
    RHS       CON15     1.000000      CON16     1.000000    
    RHS       CON17     1.000000      CON18     1.000000    
    RHS       CON19     1.000000      CON20     1.000000    
    RHS       CON21     1.000000      CON22     1.000000    
    RHS       CON23     1.000000      CON24     1.000000    
BOUNDS
 BV BOUND     u[1,1]  
 BV BOUND     u[1,2]  
 BV BOUND     u[1,3]  
 BV BOUND     u[2,1]  
 BV BOUND     u[2,2]  
 BV BOUND     u[2,3]  
 BV BOUND     y[1,1,1]
 BV BOUND     y[1,1,2]
 BV BOUND     y[1,1,3]
 BV BOUND     y[1,2,1]
 BV BOUND     y[1,2,2]
 BV BOUND     y[1,2,3]
 BV BOUND     y[1,3,1]
 BV BOUND     y[1,3,2]
 BV BOUND     y[1,3,3]
 BV BOUND     y[1,4,1]
 BV BOUND     y[1,4,2]
 BV BOUND     y[1,4,3]
 BV BOUND     y[2,1,1]
 BV BOUND     y[2,1,2]
 BV BOUND     y[2,1,3]
 BV BOUND     y[2,2,1]
 BV BOUND     y[2,2,2]
 BV BOUND     y[2,2,3]
 BV BOUND     y[2,3,1]
 BV BOUND     y[2,3,2]
 BV BOUND     y[2,3,3]
 BV BOUND     y[2,4,1]
 BV BOUND     y[2,4,2]
 BV BOUND     y[2,4,3]
 BV BOUND     z[1,1]  
 BV BOUND     z[1,2]  
 BV BOUND     z[1,3]  
 BV BOUND     z[2,1]  
 BV BOUND     z[2,2]  
 BV BOUND     z[2,3]  
 BV BOUND     z[3,1]  
 BV BOUND     z[3,2]  
 BV BOUND     z[3,3]  
 BV BOUND     z[4,1]  
 BV BOUND     z[4,2]  
 BV BOUND     z[4,3]  
ENDATA
